100
128
30
16
4
56
15
20
57
25
21
5
24
5
2
38
26
22
27
24
14
5
6
35
12
55
45
32
13
22
52
46
21
19
23
31
16
15
63
11
14
8
13
18
31
36
29
12
10
32
40
64
19
42
33
45
24
22
21
1
16
16
27
42
29
20
16
46
4
21
61
16
53
16
20
18
57
21
35
20
15
27
16
23
28
33
20
20
62
55
26
51
20
18
19
17
19
3
55
40
43
42